
--- Job hw1-2.gms Start 09/13/23 22:11:48 44.3.0 8b8fb1cb WEX-WEI x86 64bit/MS Windows
--- Applying:
    D:\GAMS\44\gmsprmNT.txt
--- GAMS Parameters defined
    Input C:\Users\shaox\OneDrive\Documents\GAMS\Studio\workspace\hw1\hw1-2\hw1-2.gms
    PageSize 0
    ScrDir C:\Users\shaox\OneDrive\Documents\GAMS\Studio\workspace\hw1\hw1-2\225a\
    SysDir D:\GAMS\44\
    LogOption 3
    ErrMsg 1
    ErrorLog 99
    IDE 1
    LstTitleLeftAligned 1
Licensee: Introduction to Optimization (CS/ISyE/ECE 524) G230906|0002AS-GEN
          UW-Madison, CS Dept., Fall 2023, Prof. Ferris              DCE850
          C:\Users\shaox\OneDrive\Documents\GAMS\gamslice.txt
          License Admin: Michael C. Ferris, ferris@cs.wisc.edu             
          Course license for use within the course and related course work
Processor information: 1 socket(s), 8 core(s), and 16 thread(s) available
GAMS 44.3.0   Copyright (C) 1987-2023 GAMS Development. All rights reserved
--- Starting compilation
--- hw1-2.gms(32) 3 Mb
--- Starting execution: elapsed 0:00:00.005
--- Generating LP model softsuds
--- hw1-2.gms(29) 4 Mb
---   4 rows  3 columns  9 non-zeroes
--- Range statistics (absolute non-zero finite values)
--- RHS       [min, max] : [ 4.000E+01, 9.000E+01] - Zero values observed as well
--- Bound     [min, max] : [        NA,        NA] - Zero values observed as well
--- Matrix    [min, max] : [ 1.000E+00, 3.000E+00]
--- Executing CPLEX (Solvelink=2): elapsed 0:00:00.008

IBM ILOG CPLEX   44.3.0 8b8fb1cb Sep 1, 2023           WEI x86 64bit/MS Window

--- GAMS/CPLEX licensed for continuous and discrete problems.
--- GMO setup time: 0.00s
--- GMO memory 0.50 Mb (peak 0.50 Mb)
--- Dictionary memory 0.00 Mb
--- Cplex 22.1.1.0 link memory 0.00 Mb (peak 0.00 Mb)
--- Starting Cplex

Version identifier: 22.1.1.0 | 2022-11-27 | 9160aff4d
CPXPARAM_Advance                                 0
CPXPARAM_Simplex_Display                         2
CPXPARAM_Threads                                 1
CPXPARAM_MIP_Display                             4
CPXPARAM_MIP_Pool_Capacity                       0
CPXPARAM_MIP_Tolerances_AbsMIPGap                0
Tried aggregator 1 time.
LP Presolve eliminated 1 rows and 1 columns.
Reduced LP has 2 rows, 2 columns, and 4 nonzeros.
Presolve time = 0.00 sec. (0.00 ticks)

Iteration      Dual Objective            In Variable           Out Variable
     1  I            0.000000    quant("Light Beer")resource_con(Malt slack
     2              35.714286     quant("Dark Beer")resource_con(Hops slack

--- LP status (1): optimal.
--- Cplex Time: 0.00sec (det. 0.01 ticks)


Optimal solution found
Objective:           35.714286

--- Reading solution for model softsuds
--- Executing after solve: elapsed 0:00:00.040
--- hw1-2.gms(30) 4 Mb
*** Status: Normal completion
--- Job hw1-2.gms Stop 09/13/23 22:11:48 elapsed 0:00:00.040
